#164 (P -3 m 1)                         
   5.08185999906690     
     0.9973819343146727    0.0000000000000000    0.0000000000000000
    -0.4986909671573364    0.8637576917802278    0.0000000000000000
     0.0000000000000000    0.0000000000000000    2.0541250036945935
   Fe   Ge
    12     6
Direct
  0.4963855610192399  0.5036194389807637  0.6929335189918204
  0.4963855610192452  0.9927611220384801  0.6929335189918204
  0.0072438779615197  0.5036194389807637  0.6929335189918204
  0.9927661220384764  0.4963805610192436  0.3070664810081795
  0.5036244389807631  0.4963805610192436  0.3070664810081795
  0.5036244389807653  0.0072388779615200  0.3070664810081795
  0.8324358907196534  0.1675691092803236  0.1004965234481080
  0.8324358907196709  0.6648617814393458  0.1004965234481080
  0.3351432185606734  0.1675691092803236  0.1004965234481080
  0.6648667814393299  0.8324308907196765  0.8995034765518920
  0.1675741092803427  0.8324308907196765  0.8995034765518920
  0.1675741092803252  0.3351382185606542  0.8995034765518920
  0.3333349999999982  0.6666700000000034  0.4973995405964419
  0.6666650000000018  0.3333299999999966  0.5026004594035581
  0.0000000000000000  0.0000000000000000  0.6987469172984428
  0.0000000000000000 -0.0000000000000000  0.3012530827015572
  0.3333349999999982  0.6666700000000034  0.1067387057530076
  0.6666650000000018  0.3333299999999966  0.8932612942469924
 
  0.00000000E+00  0.00000000E+00  0.00000000E+00
  0.00000000E+00  0.00000000E+00  0.00000000E+00
  0.00000000E+00  0.00000000E+00  0.00000000E+00
  0.00000000E+00  0.00000000E+00  0.00000000E+00
  0.00000000E+00  0.00000000E+00  0.00000000E+00
  0.00000000E+00  0.00000000E+00  0.00000000E+00
  0.00000000E+00  0.00000000E+00  0.00000000E+00
  0.00000000E+00  0.00000000E+00  0.00000000E+00
  0.00000000E+00  0.00000000E+00  0.00000000E+00
  0.00000000E+00  0.00000000E+00  0.00000000E+00
  0.00000000E+00  0.00000000E+00  0.00000000E+00
  0.00000000E+00  0.00000000E+00  0.00000000E+00
  0.00000000E+00  0.00000000E+00  0.00000000E+00
  0.00000000E+00  0.00000000E+00  0.00000000E+00
  0.00000000E+00  0.00000000E+00  0.00000000E+00
  0.00000000E+00  0.00000000E+00  0.00000000E+00
  0.00000000E+00  0.00000000E+00  0.00000000E+00
  0.00000000E+00  0.00000000E+00  0.00000000E+00
