#166 (R -3 m)                           
   4.14202999634973     
     0.0000099477851245    0.5758662688887412   -2.0390028386078503
     0.4987301661813840   -0.2879420874509652   -2.0390028253331196
    -0.4987102706112012   -0.2879420874510034   -2.0390028383524759
   Fe   Ta
     8     2
Direct
  0.0000000000000000  0.0000000000000000  0.0000000000000000
  0.4999930099999972  0.5000289800000033  0.4999930099999972
  0.1026884023937669  0.1026882023938143  0.1026884023937669
  0.8972976176062346  0.8973097476061866  0.8972976176062346
  0.1987132201441142  0.1987072601440900  0.1987132201441142
  0.8012727998558873  0.8012906898559109  0.8012727998558873
  0.6999844359750398  0.7000084059750336  0.6999844359750398
  0.3000015840249546  0.3000495540249659  0.3000015840249546
  0.4005795787949253  0.4006215087949201  0.4005795787949253
  0.5994064412050761  0.5994064412050832  0.5994064412050761
 
  0.00000000E+00  0.00000000E+00  0.00000000E+00
  0.00000000E+00  0.00000000E+00  0.00000000E+00
  0.00000000E+00  0.00000000E+00  0.00000000E+00
  0.00000000E+00  0.00000000E+00  0.00000000E+00
  0.00000000E+00  0.00000000E+00  0.00000000E+00
  0.00000000E+00  0.00000000E+00  0.00000000E+00
  0.00000000E+00  0.00000000E+00  0.00000000E+00
  0.00000000E+00  0.00000000E+00  0.00000000E+00
  0.00000000E+00  0.00000000E+00  0.00000000E+00
  0.00000000E+00  0.00000000E+00  0.00000000E+00
