#139-I4/m2/m2/m                         
  0.999999999634018     
     4.1089494224397027    0.0000000000000000   -0.0000000000000000
     0.0000000000000000    4.1089494224397027   -0.0000000000000000
    -0.0000000000000000   -0.0000000000000000   17.5333323900878284
   Fe   Ta
    20     4
Direct
 -0.0000000000000000 -0.0000000000000000  0.8363112186932992
  0.0000000000000000  0.0000000000000000  0.1636887813067010
  0.5000000000000000  0.5000000000000000  0.3363112186932991
  0.5000000000000000  0.5000000000000000  0.6636887813067008
 -0.0000000000000000  0.5000000000000000  0.2500000000000000
  0.0000000000000000  0.5000000000000000  0.7500000000000000
  0.5000000000000000  0.0000000000000000  0.7500000000000000
  0.5000000000000000 -0.0000000000000000  0.2500000000000000
 -0.0000000000000000  0.0000000000000000  0.0000000000000000
  0.5000000000000000  0.5000000000000000  0.5000000000000000
  0.0000000000000000  0.5000000000000000  0.9207497309073681
 -0.0000000000000000  0.5000000000000000  0.0792502690926317
  0.5000000000000000 -0.0000000000000000  0.0792502690926317
  0.5000000000000000  0.0000000000000000  0.9207497309073681
  0.5000000000000000  0.0000000000000000  0.4207497309073682
  0.5000000000000000 -0.0000000000000000  0.5792502690926319
 -0.0000000000000000  0.5000000000000000  0.5792502690926319
  0.0000000000000000  0.5000000000000000  0.4207497309073682
 -0.0000000000000000  0.0000000000000000  0.5000000000000000
  0.5000000000000000  0.5000000000000000  0.0000000000000000
  0.0000000000000000  0.0000000000000000  0.3347168193647582
 -0.0000000000000000 -0.0000000000000000  0.6652831806352419
  0.5000000000000000  0.5000000000000000  0.8347168193647581
  0.5000000000000000  0.5000000000000000  0.1652831806352418
 
  0.00000000E+00  0.00000000E+00  0.00000000E+00
  0.00000000E+00  0.00000000E+00  0.00000000E+00
  0.00000000E+00  0.00000000E+00  0.00000000E+00
  0.00000000E+00  0.00000000E+00  0.00000000E+00
  0.00000000E+00  0.00000000E+00  0.00000000E+00
  0.00000000E+00  0.00000000E+00  0.00000000E+00
  0.00000000E+00  0.00000000E+00  0.00000000E+00
  0.00000000E+00  0.00000000E+00  0.00000000E+00
  0.00000000E+00  0.00000000E+00  0.00000000E+00
  0.00000000E+00  0.00000000E+00  0.00000000E+00
  0.00000000E+00  0.00000000E+00  0.00000000E+00
  0.00000000E+00  0.00000000E+00  0.00000000E+00
  0.00000000E+00  0.00000000E+00  0.00000000E+00
  0.00000000E+00  0.00000000E+00  0.00000000E+00
  0.00000000E+00  0.00000000E+00  0.00000000E+00
  0.00000000E+00  0.00000000E+00  0.00000000E+00
  0.00000000E+00  0.00000000E+00  0.00000000E+00
  0.00000000E+00  0.00000000E+00  0.00000000E+00
  0.00000000E+00  0.00000000E+00  0.00000000E+00
  0.00000000E+00  0.00000000E+00  0.00000000E+00
  0.00000000E+00  0.00000000E+00  0.00000000E+00
  0.00000000E+00  0.00000000E+00  0.00000000E+00
  0.00000000E+00  0.00000000E+00  0.00000000E+00
  0.00000000E+00  0.00000000E+00  0.00000000E+00
