#62 (P n m a)                           
   7.91132999631780     
     0.9965881617675300    0.0000000000000000    0.0000000000000000
     0.0000000000000000    0.6069860934262867    0.0000000000000000
     0.0000000000000000    0.0000000000000000    0.8221089392424762
   Fe   Ta
    16     4
Direct
  0.2582434700699494  0.2500000000000000  0.4028963186815773
  0.7582434700699494  0.2500000000000000  0.0971036813184227
  0.7417565299300506  0.7500000000000000  0.5971036813184227
  0.2417565299300506  0.7500000000000000  0.9028963186815773
  0.0837722745475631  0.4881222542346038  0.1514014227404132
  0.5837722745475631  0.0118777457653962  0.3485985772595868
  0.9162277254524369  0.9881222542346038  0.8485985772595868
  0.4162277254524369  0.5118777457653962  0.6514014227404132
  0.9162277254524369  0.5118777457653962  0.8485985772595868
  0.4162277254524369  0.9881222542346038  0.6514014227404132
  0.0837722745475631  0.0118777457653962  0.1514014227404132
  0.5837722745475631  0.4881222542346038  0.3485985772595868
  0.6587322936003659  0.2500000000000000  0.7401411722204116
  0.1587322936003659  0.2500000000000000  0.7598588277795884
  0.3412677063996341  0.7500000000000000  0.2598588277795884
  0.8412677063996341  0.7500000000000000  0.2401411722204116
  0.8937797955037041  0.2500000000000000  0.4620440798941843
  0.3937797955037041  0.2500000000000000  0.0379559201058157
  0.1062202044962959  0.7500000000000000  0.5379559201058157
  0.6062202044962959  0.7500000000000000  0.9620440798941843
 
  0.00000000E+00  0.00000000E+00  0.00000000E+00
  0.00000000E+00  0.00000000E+00  0.00000000E+00
  0.00000000E+00  0.00000000E+00  0.00000000E+00
  0.00000000E+00  0.00000000E+00  0.00000000E+00
  0.00000000E+00  0.00000000E+00  0.00000000E+00
  0.00000000E+00  0.00000000E+00  0.00000000E+00
  0.00000000E+00  0.00000000E+00  0.00000000E+00
  0.00000000E+00  0.00000000E+00  0.00000000E+00
  0.00000000E+00  0.00000000E+00  0.00000000E+00
  0.00000000E+00  0.00000000E+00  0.00000000E+00
  0.00000000E+00  0.00000000E+00  0.00000000E+00
  0.00000000E+00  0.00000000E+00  0.00000000E+00
  0.00000000E+00  0.00000000E+00  0.00000000E+00
  0.00000000E+00  0.00000000E+00  0.00000000E+00
  0.00000000E+00  0.00000000E+00  0.00000000E+00
  0.00000000E+00  0.00000000E+00  0.00000000E+00
  0.00000000E+00  0.00000000E+00  0.00000000E+00
  0.00000000E+00  0.00000000E+00  0.00000000E+00
  0.00000000E+00  0.00000000E+00  0.00000000E+00
  0.00000000E+00  0.00000000E+00  0.00000000E+00
