#139-I4/m2/m2/m                         
  0.999999999553768     
     4.0809132235440524   -0.0000000000000000   -0.0000000000000000
     0.0000000000000000    4.0809132235440524   -0.0000000000000000
     0.0000000000000000   -0.0000000000000000   11.6518371279390056
   Fe   Ta
    14     2
Direct
  0.0000000000000000  0.5000000000000000  0.8700371838387837
 -0.0000000000000000  0.5000000000000000  0.1299628161612163
  0.5000000000000000  0.0000000000000000  0.1299628161612163
  0.5000000000000000 -0.0000000000000000  0.8700371838387837
  0.5000000000000000 -0.0000000000000000  0.3700371838387838
  0.5000000000000000  0.0000000000000000  0.6299628161612163
 -0.0000000000000000  0.5000000000000000  0.6299628161612163
  0.0000000000000000  0.5000000000000000  0.3700371838387838
  0.0000000000000000  0.0000000000000000  0.7511659014817992
 -0.0000000000000000 -0.0000000000000000  0.2488340985182008
  0.5000000000000000  0.5000000000000000  0.2511659014817991
  0.5000000000000000  0.5000000000000000  0.7488340985182008
 -0.0000000000000000 -0.0000000000000000  0.0000000000000000
  0.5000000000000000  0.5000000000000000  0.5000000000000000
  0.0000000000000000 -0.0000000000000000  0.5000000000000000
  0.5000000000000000  0.5000000000000000  0.0000000000000000
 
  0.00000000E+00  0.00000000E+00  0.00000000E+00
  0.00000000E+00  0.00000000E+00  0.00000000E+00
  0.00000000E+00  0.00000000E+00  0.00000000E+00
  0.00000000E+00  0.00000000E+00  0.00000000E+00
  0.00000000E+00  0.00000000E+00  0.00000000E+00
  0.00000000E+00  0.00000000E+00  0.00000000E+00
  0.00000000E+00  0.00000000E+00  0.00000000E+00
  0.00000000E+00  0.00000000E+00  0.00000000E+00
  0.00000000E+00  0.00000000E+00  0.00000000E+00
  0.00000000E+00  0.00000000E+00  0.00000000E+00
  0.00000000E+00  0.00000000E+00  0.00000000E+00
  0.00000000E+00  0.00000000E+00  0.00000000E+00
  0.00000000E+00  0.00000000E+00  0.00000000E+00
  0.00000000E+00  0.00000000E+00  0.00000000E+00
  0.00000000E+00  0.00000000E+00  0.00000000E+00
  0.00000000E+00  0.00000000E+00  0.00000000E+00
