#216 (F -4 3 m)                         
   6.70193000016565     
     0.4980065816767815   -0.0000000000000000   -0.4980065816767815
     0.0000000000000000    0.4980065816767815   -0.4980065816767815
     0.4980065816767815    0.4980065816767815    0.0000000000000000
   Fe   Ta
     5     1
Direct
  0.6245126357268536  0.6245126357268536  0.1264620928194394
  0.1264620928194394  0.6245126357268536  0.6245126357268536
  0.6245126357268536  0.1264620928194394  0.6245126357268536
  0.6245126357268536  0.6245126357268536  0.6245126357268536
  0.2500000000000000  0.2500000000000000  0.2500000000000000
  0.0000000000000000  0.0000000000000000  0.0000000000000000
 
  0.00000000E+00  0.00000000E+00  0.00000000E+00
  0.00000000E+00  0.00000000E+00  0.00000000E+00
  0.00000000E+00  0.00000000E+00  0.00000000E+00
  0.00000000E+00  0.00000000E+00  0.00000000E+00
  0.00000000E+00  0.00000000E+00  0.00000000E+00
  0.00000000E+00  0.00000000E+00  0.00000000E+00
