#129 (P 4/n m m) [origin choice 2]      
   4.12123000294855     
     0.9950413198192616   -0.0000000000000000    0.0000000000000000
    -0.0000000000000000    0.9950413198192616    0.0000000000000000
     0.0000000000000000    0.0000000000000000    2.1296901176250147
   Fe   Ta
    10     2
Direct
  0.7500000000000000  0.2500000000000000  0.8420037911836123
  0.2500000000000000  0.7500000000000000  0.1579962088163877
  0.7500000000000000  0.2500000000000000  0.1579962088163877
  0.2500000000000000  0.7500000000000000  0.8420037911836123
  0.2500000000000000  0.2500000000000000  0.6737105837824584
  0.7500000000000000  0.7500000000000000  0.3262894162175344
  0.7500000000000000  0.2500000000000000  0.5000000000000000
  0.2500000000000000  0.7500000000000000  0.5000000000000000
  0.2500000000000000  0.2500000000000000  0.9982852448211623
  0.7500000000000000  0.7500000000000000  0.0017147551788377
  0.2500000000000000  0.2500000000000000  0.3302069364369202
  0.7500000000000000  0.7500000000000000  0.6697930635630799
 
  0.00000000E+00  0.00000000E+00  0.00000000E+00
  0.00000000E+00  0.00000000E+00  0.00000000E+00
  0.00000000E+00  0.00000000E+00  0.00000000E+00
  0.00000000E+00  0.00000000E+00  0.00000000E+00
  0.00000000E+00  0.00000000E+00  0.00000000E+00
  0.00000000E+00  0.00000000E+00  0.00000000E+00
  0.00000000E+00  0.00000000E+00  0.00000000E+00
  0.00000000E+00  0.00000000E+00  0.00000000E+00
  0.00000000E+00  0.00000000E+00  0.00000000E+00
  0.00000000E+00  0.00000000E+00  0.00000000E+00
  0.00000000E+00  0.00000000E+00  0.00000000E+00
  0.00000000E+00  0.00000000E+00  0.00000000E+00
