#129-P4/n21/m2/m(originchoice2)         
  0.999999999641280     
     4.0816237003091986    0.0000000000000000   -0.0000000000000000
    -0.0000000000000000    4.0816237003091986   -0.0000000000000000
     0.0000000000000000    0.0000000000000000   15.0145686631856545
   Fe   Ta
    16     4
Direct
  0.7500000000000000  0.2500000000000000  0.2968541083585082
  0.2500000000000000  0.7500000000000000  0.7031458916414919
  0.7500000000000000  0.2500000000000000  0.7031458916414919
  0.2500000000000000  0.7500000000000000  0.2968541083585082
  0.7500000000000000  0.2500000000000000  0.5000000000000000
  0.2500000000000000  0.7500000000000000  0.5000000000000000
  0.2500000000000000  0.2500000000000000  0.1944073390821974
  0.7500000000000000  0.7500000000000000  0.8055926609178026
  0.2500000000000000  0.2500000000000000  0.3968626013460155
  0.7500000000000000  0.7500000000000000  0.6031373986539843
  0.7500000000000000  0.2500000000000000  0.9067589393297651
  0.2500000000000000  0.7500000000000000  0.0932410606702349
  0.7500000000000000  0.2500000000000000  0.0932410606702349
  0.2500000000000000  0.7500000000000000  0.9067589393297651
  0.2500000000000000  0.2500000000000000  0.0005539201525177
  0.7500000000000000  0.7500000000000000  0.9994460798474822
  0.2500000000000000  0.2500000000000000  0.5994877056206382
  0.7500000000000000  0.7500000000000000  0.4005122943793617
  0.2500000000000000  0.2500000000000000  0.8062523736275514
  0.7500000000000000  0.7500000000000000  0.1937476263724485
 
  0.00000000E+00  0.00000000E+00  0.00000000E+00
  0.00000000E+00  0.00000000E+00  0.00000000E+00
  0.00000000E+00  0.00000000E+00  0.00000000E+00
  0.00000000E+00  0.00000000E+00  0.00000000E+00
  0.00000000E+00  0.00000000E+00  0.00000000E+00
  0.00000000E+00  0.00000000E+00  0.00000000E+00
  0.00000000E+00  0.00000000E+00  0.00000000E+00
  0.00000000E+00  0.00000000E+00  0.00000000E+00
  0.00000000E+00  0.00000000E+00  0.00000000E+00
  0.00000000E+00  0.00000000E+00  0.00000000E+00
  0.00000000E+00  0.00000000E+00  0.00000000E+00
  0.00000000E+00  0.00000000E+00  0.00000000E+00
  0.00000000E+00  0.00000000E+00  0.00000000E+00
  0.00000000E+00  0.00000000E+00  0.00000000E+00
  0.00000000E+00  0.00000000E+00  0.00000000E+00
  0.00000000E+00  0.00000000E+00  0.00000000E+00
  0.00000000E+00  0.00000000E+00  0.00000000E+00
  0.00000000E+00  0.00000000E+00  0.00000000E+00
  0.00000000E+00  0.00000000E+00  0.00000000E+00
  0.00000000E+00  0.00000000E+00  0.00000000E+00
