#225 (F m -3 m)                         
   5.72597001672811     
     0.4989157842606232    0.0000000000000000   -0.4989157842606232
     0.0000000000000000    0.4989157842606232   -0.4989157842606232
     0.4989157842606232    0.4989157842606232   -0.0000000000000000
   Fe   Ge
     3     1
Direct
  0.2500000000000000  0.2500000000000000  0.2500000000000000
  0.7500000000000000  0.7500000000000000  0.7500000000000000
  0.5000000000000000  0.5000000000000000  0.5000000000000000
  0.0000000000000000 -0.0000000000000000 -0.0000000000000000
 
  0.00000000E+00  0.00000000E+00  0.00000000E+00
  0.00000000E+00  0.00000000E+00  0.00000000E+00
  0.00000000E+00  0.00000000E+00  0.00000000E+00
  0.00000000E+00  0.00000000E+00  0.00000000E+00
