#166 (R -3 m)                           
   4.06302000213355     
     0.0000009957505894    0.5759591065216573   -1.0210064428436922
     0.4987964466979171   -0.2879805490114136   -1.0210064409041975
    -0.4987944551967402   -0.2879805490114148   -1.0210064427044423
   Fe   Ge
     4     1
Direct
  0.5977095521937515  0.5977089621937292  0.5977095521937509
  0.4022904478062485  0.4022910378062708  0.4022904478062492
  0.7965183136247532  0.7965225336248176  0.7965183136247623
  0.2034816863752467  0.2034834663751814  0.2034816863752376
  0.0000000000000000 -0.0000000000000000 -0.0000000000000000
 
  0.00000000E+00  0.00000000E+00  0.00000000E+00
  0.00000000E+00  0.00000000E+00  0.00000000E+00
  0.00000000E+00  0.00000000E+00  0.00000000E+00
  0.00000000E+00  0.00000000E+00  0.00000000E+00
  0.00000000E+00  0.00000000E+00  0.00000000E+00
