#164 (P -3 m 1)                         
   4.04772999198531     
     0.9972152723850627   -0.0000000000000000   -0.0000000000000000
    -0.4986076361925313    0.8636133585194437   -0.0000000000000000
     0.0000000000000000    0.0000000000000000    1.2257375265576722
   Fe   Ge
     5     1
Direct
  0.3333299999999966  0.6666700000000034  0.8240973050667083
  0.6666600000000003  0.3333299999999966  0.1759026949332917
  0.3333299999999966  0.6666700000000034  0.3322364074663631
  0.6666600000000003  0.3333299999999966  0.6677635925336368
 -0.0000000000000000  0.0000000000000000  0.5000000000000000
  0.0000000000000000  0.0000000000000000  0.0000000000000000
 
  0.00000000E+00  0.00000000E+00  0.00000000E+00
  0.00000000E+00  0.00000000E+00  0.00000000E+00
  0.00000000E+00  0.00000000E+00  0.00000000E+00
  0.00000000E+00  0.00000000E+00  0.00000000E+00
  0.00000000E+00  0.00000000E+00  0.00000000E+00
  0.00000000E+00  0.00000000E+00  0.00000000E+00
