#12 (C 2/m) [unique axis c] cell choice 
   8.61327000604449     
     0.0567103395784652    0.0000000000000000   -0.5482338916499291
    -0.4984273926968076    0.2344229682594360   -0.0005590593136995
     0.4984273926968076    0.2344229682594360    0.0005590593136995
   Fe   Ge
     6     1
Direct
  0.2923260621032142  0.5728551143279788  0.4271448856720212
  0.7076739378967858  0.4271448856720212  0.5728551143279788
  0.8575241769014994  0.7095881804443209  0.2904118195556791
  0.1424758230985006  0.2904118195556791  0.7095881804443209
  0.5636095333321549  0.1439260852760214  0.8560739147239786
  0.4363904666678451  0.8560739147239786  0.1439260852760214
  0.0000000000000000  0.0000000000000000  0.0000000000000000
 
  0.00000000E+00  0.00000000E+00  0.00000000E+00
  0.00000000E+00  0.00000000E+00  0.00000000E+00
  0.00000000E+00  0.00000000E+00  0.00000000E+00
  0.00000000E+00  0.00000000E+00  0.00000000E+00
  0.00000000E+00  0.00000000E+00  0.00000000E+00
  0.00000000E+00  0.00000000E+00  0.00000000E+00
  0.00000000E+00  0.00000000E+00  0.00000000E+00
